
Gurobi 12.0.2 (win64) logging started Wed Jun  4 14:55:32 2025

Set parameter LogFile to value "C:\Ioana\_uni\honours\slp\algorithm\Main_files\results\paracetamol_updated_with_sulfation\Task_001_Sample002_irr_gurobi.log"
Gurobi Optimizer version 12.0.2 build v12.0.2rc0 (win64 - Windows 11.0 (26100.2))

CPU model: Intel(R) Core(TM) Ultra 5 125H, instruction set [SSE2|AVX|AVX2]
Thread count: 14 physical cores, 18 logical processors, using up to 18 threads

Non-default parameters:
TimeLimit  2200

Optimize a model with 47234 rows, 34504 columns and 146708 nonzeros
Model fingerprint: 0x506233a0
Variable types: 17256 continuous, 17248 integer (17248 binary)
Coefficient statistics:
  Matrix range     [1e-04, 8e+04]
  Objective range  [4e-04, 9e-01]
  Bounds range     [1e+00, 1e+03]
  RHS range        [1e+00, 1e+00]
Found heuristic solution: objective 0.2074946
Presolve removed 47234 rows and 34504 columns
Presolve time: 0.40s
Presolve: All rows and columns removed

Explored 0 nodes (0 simplex iterations) in 0.44 seconds (0.30 work units)
Thread count was 1 (of 18 available processors)

Solution count 1: 0.207495 

Optimal solution found (tolerance 1.00e-04)
Best objective 2.074945869624e-01, best bound 2.074945869624e-01, gap 0.0000%
